1346172
12,43,24,23,11,98,54,65,52,22,39,86,88,83,61,2,64,5,3,27,15,16,4,66,74,37,48,87,76,50,38,36,44,55,91,97,35,42,80,99,68,32,70,13,31,60,63,93,62,20,21,77,96,41,69,6,49,30,10,75,56,18,1,9,57,33,47,95,78,51,40,79,94,26,17,19,59,90,71,34,28,46,67,82,58,89,85,8,53,72,45,81,14,7,92,84,73,25,29